sat
(:max-memory          18.25
 :memory              17.65
 :num-allocs          43642082
 :rlimit-count        471841
 :sls-constraints     628
 :sls-ddfw-flips      140632.00
 :sls-ddfw-reinits    5
 :sls-ddfw-restarts   141
 :sls-ddfw-shifts     75189.00
 :sls.euf-conflict    1936
 :solve-eqs-elim-vars 4
 :solve-eqs-steps     8
 :time                0.17
 :total-time          0.16)
